NAME : G100_2216_01
COMMENT : Generated CVRP instance (n=100)
TYPE : CVRP
DIMENSION : 101
EDGE_WEIGHT_TYPE : EUC_2D
CAPACITY : 36
NODE_COORD_SECTION
1    500  500 
2    549  181 
3    522  139 
4    35   936 
5    253  878 
6    479  897 
7    188  861 
8    210  925 
9    561  221 
10   505  79  
11   322  943 
12   424  69  
13   593  146 
14   148  790 
15   370  162 
16   219  969 
17   576  114 
18   489  30  
19   240  27  
20   307  71  
21   236  868 
22   180  845 
23   248  851 
24   277  57  
25   284  8   
26   268  838 
27   186  131 
28   469  62  
29   427  111 
30   443  83  
31   152  974 
32   479  240 
33   540  134 
34   138  905 
35   483  36  
36   292  252 
37   484  120 
38   431  62  
39   530  96  
40   241  768 
41   144  881 
42   387  843 
43   327  746 
44   477  98  
45   222  900 
46   259  751 
47   414  33  
48   413  98  
49   291  911 
50   517  27  
51   305  791 
52   331  135 
53   275  896 
54   552  66  
55   35   969 
56   296  891 
57   497  170 
58   508  154 
59   239  838 
60   259  847 
61   331  939 
62   282  775 
63   287  890 
64   340  780 
65   255  895 
66   527  96  
67   165  955 
68   140  901 
69   454  228 
70   581  61  
71   432  911 
72   270  858 
73   81   970 
74   542  78  
75   405  155 
76   413  699 
77   183  801 
78   640  30  
79   452  123 
80   398  33  
81   208  940 
82   598  60  
83   448  73  
84   472  67  
85   266  929 
86   263  921 
87   461  18  
88   721  69  
89   322  891 
90   270  798 
91   287  814 
92   468  60  
93   409  886 
94   295  699 
95   180  898 
96   432  69  
97   313  991 
98   243  563 
99   209  744 
100  409  49  
101  292  879 
DEMAND_SECTION
1    0   
2    1   
3    1   
4    1   
5    1   
6    1   
7    1   
8    1   
9    1   
10   1   
11   1   
12   1   
13   1   
14   1   
15   1   
16   1   
17   1   
18   1   
19   1   
20   1   
21   1   
22   1   
23   1   
24   1   
25   1   
26   1   
27   1   
28   1   
29   1   
30   1   
31   1   
32   1   
33   1   
34   1   
35   1   
36   1   
37   1   
38   1   
39   1   
40   1   
41   1   
42   1   
43   1   
44   1   
45   1   
46   1   
47   1   
48   1   
49   1   
50   1   
51   1   
52   1   
53   1   
54   1   
55   1   
56   1   
57   1   
58   1   
59   1   
60   1   
61   1   
62   1   
63   1   
64   1   
65   1   
66   1   
67   1   
68   1   
69   1   
70   1   
71   1   
72   1   
73   1   
74   1   
75   1   
76   1   
77   1   
78   1   
79   1   
80   1   
81   1   
82   1   
83   1   
84   1   
85   1   
86   1   
87   1   
88   1   
89   1   
90   1   
91   1   
92   1   
93   1   
94   1   
95   1   
96   1   
97   1   
98   1   
99   1   
100  1   
101  1   
DEPOT_SECTION
1
-1
EOF
